s td 205 14 77
b 1 6
b 2 1
b 3 1 2
b 4 1 2 6
b 5 45
b 6 7
b 7 4 5
b 8 3
b 9 3 4
b 10 4 3 5
b 11 6 43
b 12 4 6
b 13 4
b 14 4 5
b 15 4 5 6
b 16 5 4 6 34
b 17 16 15
b 18 7 13
b 19 6 41
b 20 7 56
b 21 16 17
b 22 7 16
b 23 13 17
b 24 35 45 6
b 25 6
b 26 6 35
b 27 35 6 45
b 28 35 45 6 49
b 29 49 35 45 6 62
b 30 49 62 35 45 6 63
b 31 49 62 63 35 45 6 64
b 32 49 62 63 64 35 45 6 65
b 33 49 62 63 64 65 35 45 6 66
b 34 10 12 6
b 35 43 45 26
b 36 6 53 52
b 37 43 45 6
b 38 4 6 45
b 39 7 14 52 16
b 40 6 7 11 45
b 41 6 7 8 45
b 42 6 7 43 46 53 8
b 43 6
b 44 6 7
b 45 6 7 8
b 46 6 7 8 27
b 47 27 6 7 8 28
b 48 27 28 6 7 8 29
b 49 27 28 29 6 7 8 36
b 50 36 27 28 29 6 7 8 37
b 51 36 27 28 29 37 6 7 8 39
b 52 6 7 8 36 27 28 29 37 39 43
b 53 6 7 43 8 36 27 28 29 37 39 46
b 54 6 7 43 46 8 36 27 28 29 37 39 53
b 55 36 27 28 29 37 39 6 7 43 46 53 8 54
b 56 36 27 28 29 37 54 39 6 7 43 46 53 8 56
b 57 6 7 8 43 46 52
b 58 6 7 8 43 52 11
b 59 6
b 60 6 7
b 61 6 7 8
b 62 6 7 8 11
b 63 6 7 8 11 43
b 64 6 7 8 43 11 45
b 65 45 6 7 43 8 11 14
b 66 14 6 7 11 45 8 43 73
b 67 14 73 7 6 8 43 11 45 59
b 68 14 73 59 45 7 6 8 43 11 15
b 69 14 15 7 8 59 73 45 6 11 43 13
b 70 14 59 13 7 73 15 45 6 11 8 43 17
b 71 14 73 15 17 45 6 7 11 8 43 59 16
b 72 6 7 8 43 11 14 59 15 16 52
b 73 6
b 74 6 7
b 75 6 7 8
b 76 6 7 8 11
b 77 6 7 8 11 43
b 78 6 7 8 43 11 46
b 79 6 7 8 43 11 46 52
b 80 6
b 81 6 7
b 82 6 7 8
b 83 6 7 8 43
b 84 6 7 8 43 46
b 85 6 7 8 43 46 52
b 86 6 7 8 43 46 52 53
b 87 4
b 88 4 6
b 89 6 4 7
b 90 6 7 4 8
b 91 6 7 8 4 45
b 92 6
b 93 6 7
b 94 6 7 10
b 95 6 7 10 11
b 96 10 6 7 11 12
b 97 6 7 11 10 12 45
b 98 7
b 99 7 14
b 100 7 14 16
b 101 7 14 16 32
b 102 7 14 16 32 52
b 103 4
b 104 4 6
b 105 4 6 35
b 106 6 4 35 45
b 107 6
b 108 6 26
b 109 6 26 43
b 110 43 6 26 45
b 111 6
b 112 6 41
b 113 6 41 52
b 114 6 52 41 53
b 115 24 26 23
b 116 22
b 117 22 23
b 118 23 22 24
b 119 22 24 23 25
b 120 24 23 22 25 26
b 121 24 26 43
b 122 24
b 123 24 26
b 124 26 24 43
b 125 24 26 43 45
b 126 23
b 127 23 24
b 128 24 23 26
b 129 26 24 23 43
b 130 6 58 57
b 131 42 58 57
b 132 42
b 133 42 57
b 134 42 57 58
b 135 42 58 57 77
b 136 6
b 137 6 42
b 138 42 6 57
b 139 42 57 6 58
b 140 6
b 141 6 10
b 142 10 6 12
b 143 6 10 12 57
b 144 6 57 10 12 58
b 145 13
b 146 13 17
b 147 13 17 72
b 148 7
b 149 7 16
b 150 7 16 33
b 151 16
b 152 16 17
b 153 16 17 74
b 154 74 16 17 75
b 155 7
b 156 7 55
b 157 7 55 56
b 158 9 6
b 159 6
b 160 6 9
b 161 9 6 40
b 162 6
b 163 6 9
b 164 9 6 41
b 165 41 9 6 76
b 166 7
b 167 7 13
b 168 7 13 30
b 169 30 7 13 68
b 170 30 68 7 13 69
b 171 15
b 172 15 16
b 173 16 15 47
b 174 44 6
b 175 6
b 176 6 44
b 177 44 6 50
b 178 6
b 179 6 43
b 180 6 43 44
b 181 31
b 182 31
b 183 31 70
b 184 70 31 71
b 185 7
b 186 7 31
b 187 7
b 188 7 60
b 189 60 7 61
b 190 7
b 191 7 67
b 192 20 21
b 193 18
b 194 18 19
b 195 18 19 20
b 196 20 18 19 21
b 197 20
b 198 20 21
b 199 20 21 45
b 200 45
b 201 45 48
b 202 6
b 203 6 38
b 204 6
b 205 6 51
3 2
4 3
1 4
9 8
10 9
7 10
14 13
15 14
16 15
12 15
26 25
27 26
28 27
29 28
30 29
31 30
32 31
33 32
24 27
44 43
45 44
46 45
47 46
48 47
49 48
50 49
51 50
52 51
53 52
54 53
55 54
56 55
42 54
60 59
61 60
62 61
63 62
64 63
65 64
66 65
67 66
68 67
69 68
70 69
71 70
72 71
58 72
74 73
75 74
76 75
77 76
78 77
79 78
58 79
57 79
81 80
82 81
83 82
84 83
85 84
86 85
57 85
42 86
41 64
88 87
89 88
90 89
91 90
41 91
40 64
93 92
94 93
95 94
96 95
97 96
40 97
39 72
99 98
100 99
101 100
102 101
39 102
38 91
104 103
105 104
106 105
38 106
37 64
108 107
109 108
110 109
37 110
36 86
112 111
113 112
114 113
36 114
35 110
117 116
118 117
119 118
120 119
115 120
123 122
124 123
125 124
121 124
127 126
128 127
129 128
121 129
115 128
35 125
34 96
133 132
134 133
135 134
131 134
137 136
138 137
139 138
131 139
130 139
141 140
142 141
143 142
144 143
130 144
34 142
24 106
23 70
146 145
147 146
23 146
22 39
149 148
150 149
22 149
21 71
152 151
153 152
154 153
21 152
20 56
156 155
157 156
20 157
19 112
160 159
161 160
158 160
163 162
164 163
165 164
158 163
19 164
18 69
167 166
168 167
169 168
170 169
18 167
17 71
172 171
173 172
17 172
12 38
11 37
176 175
177 176
174 176
179 178
180 179
174 180
11 179
7 14
6 18
183 182
184 183
181 182
186 185
181 186
6 185
188 187
189 188
6 187
191 190
6 190
5 24
194 193
195 194
196 195
192 196
198 197
199 198
192 198
5 199
201 200
5 200
1 11
203 202
1 202
205 204
1 204